c atoms: E(3,3) E(2,3) E(3,2) E(2,2) E(3,0) E(0,3) E(0,0) E(4,3) E(4,4) E(3,4) E(1,1) E(3,1) E(1,3) E(2,0) E(0,2) E(2,4) E(4,2) E(1,2) E(2,1) E(0,4) E(4,0) E(0,1) E(1,0) E(4,1) E(1,4)
p cnf 25 110
-7 0
-11 0
-4 0
-1 0
-9 0
7 -7 0
22 -23 0
15 -14 0
6 -5 0
20 -21 0
23 -22 0
11 -11 0
18 -19 0
13 -12 0
25 -24 0
14 -15 0
19 -18 0
4 -4 0
2 -3 0
16 -17 0
5 -6 0
12 -13 0
3 -2 0
1 -1 0
10 -8 0
21 -20 0
24 -25 0
17 -16 0
8 -10 0
9 -9 0
7 22 15 6 -20 0
7 22 15 20 -6 0
7 22 6 20 -15 0
7 15 6 20 -22 0
22 15 6 20 -7 0
23 11 18 13 -25 0
23 11 18 25 -13 0
23 11 13 25 -18 0
23 18 13 25 -11 0
11 18 13 25 -23 0
14 19 4 2 -16 0
14 19 4 16 -2 0
14 19 2 16 -4 0
14 4 2 16 -19 0
19 4 2 16 -14 0
5 12 3 1 -10 0
5 12 3 10 -1 0
5 12 1 10 -3 0
5 3 1 10 -12 0
12 3 1 10 -5 0
21 24 17 8 -9 0
21 24 17 9 -8 0
21 24 8 9 -17 0
21 17 8 9 -24 0
24 17 8 9 -21 0
7 22 -15 -6 -20 0
7 15 -22 -6 -20 0
7 6 -22 -15 -20 0
7 20 -22 -15 -6 0
22 15 -7 -6 -20 0
22 6 -7 -15 -20 0
22 20 -7 -15 -6 0
15 6 -7 -22 -20 0
15 20 -7 -22 -6 0
6 20 -7 -22 -15 0
23 11 -18 -13 -25 0
23 18 -11 -13 -25 0
23 13 -11 -18 -25 0
23 25 -11 -18 -13 0
11 18 -23 -13 -25 0
11 13 -23 -18 -25 0
11 25 -23 -18 -13 0
18 13 -23 -11 -25 0
18 25 -23 -11 -13 0
13 25 -23 -11 -18 0
14 19 -4 -2 -16 0
14 4 -19 -2 -16 0
14 2 -19 -4 -16 0
14 16 -19 -4 -2 0
19 4 -14 -2 -16 0
19 2 -14 -4 -16 0
19 16 -14 -4 -2 0
4 2 -14 -19 -16 0
4 16 -14 -19 -2 0
2 16 -14 -19 -4 0
5 12 -3 -1 -10 0
5 3 -12 -1 -10 0
5 1 -12 -3 -10 0
5 10 -12 -3 -1 0
12 3 -5 -1 -10 0
12 1 -5 -3 -10 0
12 10 -5 -3 -1 0
3 1 -5 -12 -10 0
3 10 -5 -12 -1 0
1 10 -5 -12 -3 0
21 24 -17 -8 -9 0
21 17 -24 -8 -9 0
21 8 -24 -17 -9 0
21 9 -24 -17 -8 0
24 17 -21 -8 -9 0
24 8 -21 -17 -9 0
24 9 -21 -17 -8 0
17 8 -21 -24 -9 0
17 9 -21 -24 -8 0
8 9 -21 -24 -17 0
-7 -22 -15 -6 -20 0
-23 -11 -18 -13 -25 0
-14 -19 -4 -2 -16 0
-5 -12 -3 -1 -10 0
-21 -24 -17 -8 -9 0
